(set-info :smt-lib-version 2.6)
(set-logic QF_S)
(set-info :source |
Generated by: Murphy Berzish, Mitja Kulczynski, Federico Mora, Florin Manea, Joel Day, Dirk Nowotka, Vijay Ganesh, Zhengyang Lu
Generated on: 2020-10-01
Description: Translated from a collection of real-world regex queries, AutomataArk, collected by Loris D’Antoni and Fang Wang: https://github.com/lorisdanto/automatark
Application: Evaluate solvers on real-world regex queries
Target solver: Z3str3RE, CVC4, OSTRICH, Z3seq, Z3str3, Z3-Trau
Publications: Berzish, M., Kulczynski, M., Mora, F., Manea, F., Day, J. D., Nowotka, D., & Ganesh, V. (2021, July). An SMT solver for regular expressions and linear arithmetic over string length. In CAV 2021.
|)
(set-info :license "https://creativecommons.org/licenses/by/4.0/")
(set-info :category "industrial")
(set-info :status unsat)

(declare-const X String)
(assert (not (str.in_re X (re.++ (re.+ (re.range "0" "9")) (str.to_re "*") (re.+ (re.range "0" "9")) (str.to_re "*") (re.+ (re.range "0" "9")) (str.to_re "\u{a}")))))
(assert (str.in_re X (re.++ (str.to_re "/") (re.* ((_ re.loop 4 4) (re.union (re.range "A" "Z") (re.range "a" "z") (re.range "0" "9") (str.to_re "+") (str.to_re "/")))) (re.union ((_ re.loop 4 4) (re.union (re.range "A" "Z") (re.range "a" "z") (re.range "0" "9") (str.to_re "+") (str.to_re "/"))) (re.++ ((_ re.loop 3 3) (re.union (re.range "A" "Z") (re.range "a" "z") (re.range "0" "9") (str.to_re "+") (str.to_re "/"))) (str.to_re "=")) (re.++ ((_ re.loop 2 2) (re.union (re.range "A" "Z") (re.range "a" "z") (re.range "0" "9") (str.to_re "+") (str.to_re "/"))) (str.to_re "=="))) (str.to_re "/mP\u{a}"))))
(assert (not (str.in_re X (re.++ (str.to_re "/)\u{d}\u{a}Host: ") ((_ re.loop 6 32) (re.union (re.range "a" "z") (re.range "0" "9") (str.to_re ".") (str.to_re "-"))) (str.to_re "\u{d}\u{a}Cache-Control: no-cache\u{d}\u{a}\u{d}\u{a}/\u{a}")))))
(assert (str.in_re X (re.++ (str.to_re "/guid=") ((_ re.loop 32 32) (re.union (re.range "a" "f") (re.range "0" "9"))) (str.to_re "&state=") (re.union (str.to_re "LOST") (str.to_re "WORK") (str.to_re "WAIT") (str.to_re "RUN")) (str.to_re "/P\u{a}"))))
(assert (not (str.in_re X (re.++ (str.to_re "Root") (re.+ (re.union (str.to_re " ") (str.to_re "\u{9}") (str.to_re "\u{a}") (str.to_re "\u{c}") (str.to_re "\u{d}"))) (str.to_re "insert") (re.+ (re.union (str.to_re " ") (str.to_re "\u{9}") (str.to_re "\u{a}") (str.to_re "\u{c}") (str.to_re "\u{d}"))) (str.to_re "haveFTUser-Agent:Dayspassword;0;IncorrectClientsConnected-Host:*PORT3*\u{a}")))))
(check-sat)

(exit)
